(set-info :smt-lib-version 2.6)
(set-option :produce-assignments true)
(set-logic BPA+)
(set-info :source | Kaya Guvendi and Ethan Bogle |)
(set-info :category "crafted")
(set-info :status unsat)
(declare-const pt Pointer)
(declare-const addr Int)
(assert (= addr (+ (Base (Block pt)) (Offset pt))))
(assert (or (< addr 0) (> addr 512)))
(check-sat)
(exit)